clingo version 5.4.0
Reading from tempSRTISolver.lp ...
Solving...
Answer: 1
matched(6,2) matched(7,3) matched(5,4) matched(4,5) matched(2,6) matched(3,7) matched(1,8) matched(8,1) matched(12,10) matched(9,11) matched(10,12) matched(11,9) matched(15,14) matched(14,15) matched(17,16) matched(16,17) matched(19,18) matched(18,19) matched(13,20) matched(20,13) matched(26,22) matched(27,23) matched(25,24) matched(24,25) matched(22,26) matched(23,27) matched(21,28) matched(28,21) matched(31,30) matched(30,31) matched(29,32) matched(32,29) matched(36,34) matched(37,35) matched(34,36) matched(35,37) matched(39,38) matched(38,39) matched(33,40) matched(40,33) matched(44,42) matched(45,43) matched(42,44) matched(43,45) matched(47,46) matched(46,47) matched(41,48) matched(48,41) matched(51,50) matched(50,51) matched(49,52) matched(52,49) matched(58,54) matched(59,55) matched(57,56) matched(56,57) matched(54,58) matched(55,59) matched(53,60) matched(60,53)
Optimization: 515
Answer: 2
matched(6,2) matched(7,3) matched(5,4) matched(4,5) matched(2,6) matched(3,7) matched(1,8) matched(8,1) matched(12,10) matched(9,11) matched(10,12) matched(11,9) matched(16,14) matched(17,15) matched(14,16) matched(15,17) matched(19,18) matched(18,19) matched(13,20) matched(20,13) matched(26,22) matched(27,23) matched(25,24) matched(24,25) matched(22,26) matched(23,27) matched(21,28) matched(28,21) matched(31,30) matched(30,31) matched(29,32) matched(32,29) matched(36,34) matched(37,35) matched(34,36) matched(35,37) matched(39,38) matched(38,39) matched(33,40) matched(40,33) matched(44,42) matched(45,43) matched(42,44) matched(43,45) matched(47,46) matched(46,47) matched(41,48) matched(48,41) matched(51,50) matched(50,51) matched(49,52) matched(52,49) matched(58,54) matched(59,55) matched(57,56) matched(56,57) matched(54,58) matched(55,59) matched(53,60) matched(60,53)
Optimization: 514
Answer: 3
matched(4,2) matched(5,3) matched(2,4) matched(3,5) matched(7,6) matched(6,7) matched(1,8) matched(8,1) matched(12,10) matched(9,11) matched(10,12) matched(11,9) matched(18,14) matched(19,15) matched(17,16) matched(16,17) matched(14,18) matched(15,19) matched(13,20) matched(20,13) matched(26,22) matched(27,23) matched(25,24) matched(24,25) matched(22,26) matched(23,27) matched(21,28) matched(28,21) matched(32,30) matched(29,31) matched(30,32) matched(31,29) matched(36,34) matched(37,35) matched(34,36) matched(35,37) matched(39,38) matched(38,39) matched(33,40) matched(40,33) matched(43,42) matched(42,43) matched(45,44) matched(44,45) matched(47,46) matched(46,47) matched(41,48) matched(48,41) matched(51,50) matched(50,51) matched(49,52) matched(52,49) matched(56,54) matched(57,55) matched(54,56) matched(55,57) matched(59,58) matched(58,59) matched(53,60) matched(60,53)
Optimization: 513
Answer: 4
matched(4,2) matched(5,3) matched(2,4) matched(3,5) matched(7,6) matched(6,7) matched(1,8) matched(8,1) matched(12,10) matched(9,11) matched(10,12) matched(11,9) matched(18,14) matched(19,15) matched(13,16) matched(20,17) matched(14,18) matched(15,19) matched(17,20) matched(16,13) matched(26,22) matched(27,23) matched(25,24) matched(24,25) matched(22,26) matched(23,27) matched(21,28) matched(28,21) matched(32,30) matched(29,31) matched(30,32) matched(31,29) matched(36,34) matched(37,35) matched(34,36) matched(35,37) matched(39,38) matched(38,39) matched(33,40) matched(40,33) matched(43,42) matched(42,43) matched(41,44) matched(48,45) matched(47,46) matched(46,47) matched(45,48) matched(44,41) matched(51,50) matched(50,51) matched(49,52) matched(52,49) matched(56,54) matched(57,55) matched(54,56) matched(55,57) matched(59,58) matched(58,59) matched(53,60) matched(60,53)
Optimization: 511
Answer: 5
matched(4,2) matched(5,3) matched(2,4) matched(3,5) matched(7,6) matched(6,7) matched(1,8) matched(8,1) matched(12,10) matched(9,11) matched(10,12) matched(11,9) matched(18,14) matched(19,15) matched(17,16) matched(16,17) matched(14,18) matched(15,19) matched(13,20) matched(20,13) matched(26,22) matched(27,23) matched(25,24) matched(24,25) matched(22,26) matched(23,27) matched(21,28) matched(28,21) matched(32,30) matched(29,31) matched(30,32) matched(31,29) matched(36,34) matched(37,35) matched(34,36) matched(35,37) matched(39,38) matched(38,39) matched(33,40) matched(40,33) matched(43,42) matched(42,43) matched(41,44) matched(48,45) matched(47,46) matched(46,47) matched(45,48) matched(44,41) matched(51,50) matched(50,51) matched(49,52) matched(52,49) matched(56,54) matched(57,55) matched(54,56) matched(55,57) matched(59,58) matched(58,59) matched(53,60) matched(60,53)
Optimization: 508
Answer: 6
matched(4,2) matched(5,3) matched(2,4) matched(3,5) matched(7,6) matched(6,7) matched(1,8) matched(8,1) matched(12,10) matched(9,11) matched(10,12) matched(11,9) matched(15,14) matched(14,15) matched(17,16) matched(16,17) matched(19,18) matched(18,19) matched(13,20) matched(20,13) matched(26,22) matched(27,23) matched(25,24) matched(24,25) matched(22,26) matched(23,27) matched(21,28) matched(28,21) matched(32,30) matched(29,31) matched(30,32) matched(31,29) matched(36,34) matched(37,35) matched(34,36) matched(35,37) matched(39,38) matched(38,39) matched(33,40) matched(40,33) matched(43,42) matched(42,43) matched(45,44) matched(44,45) matched(47,46) matched(46,47) matched(41,48) matched(48,41) matched(51,50) matched(50,51) matched(49,52) matched(52,49) matched(56,54) matched(57,55) matched(54,56) matched(55,57) matched(59,58) matched(58,59) matched(53,60) matched(60,53)
Optimization: 505
Answer: 7
matched(4,2) matched(5,3) matched(2,4) matched(3,5) matched(7,6) matched(6,7) matched(1,8) matched(8,1) matched(12,10) matched(9,11) matched(10,12) matched(11,9) matched(15,14) matched(14,15) matched(17,16) matched(16,17) matched(19,18) matched(18,19) matched(13,20) matched(20,13) matched(26,22) matched(27,23) matched(25,24) matched(24,25) matched(22,26) matched(23,27) matched(21,28) matched(28,21) matched(32,30) matched(29,31) matched(30,32) matched(31,29) matched(36,34) matched(37,35) matched(34,36) matched(35,37) matched(39,38) matched(38,39) matched(33,40) matched(40,33) matched(43,42) matched(42,43) matched(41,44) matched(48,45) matched(47,46) matched(46,47) matched(45,48) matched(44,41) matched(51,50) matched(50,51) matched(49,52) matched(52,49) matched(56,54) matched(57,55) matched(54,56) matched(55,57) matched(59,58) matched(58,59) matched(53,60) matched(60,53)
Optimization: 500
Answer: 8
matched(4,2) matched(5,3) matched(2,4) matched(3,5) matched(7,6) matched(6,7) matched(1,8) matched(8,1) matched(12,10) matched(9,11) matched(10,12) matched(11,9) matched(16,14) matched(17,15) matched(14,16) matched(15,17) matched(19,18) matched(18,19) matched(13,20) matched(20,13) matched(24,22) matched(25,23) matched(22,24) matched(23,25) matched(27,26) matched(26,27) matched(21,28) matched(28,21) matched(31,30) matched(30,31) matched(29,32) matched(32,29) matched(35,34) matched(34,35) matched(37,36) matched(36,37) matched(39,38) matched(38,39) matched(33,40) matched(40,33) matched(43,42) matched(42,43) matched(45,44) matched(44,45) matched(47,46) matched(46,47) matched(41,48) matched(48,41) matched(51,50) matched(50,51) matched(49,52) matched(52,49) matched(58,54) matched(59,55) matched(57,56) matched(56,57) matched(54,58) matched(55,59) matched(53,60) matched(60,53)
Optimization: 498
Answer: 9
matched(4,2) matched(5,3) matched(2,4) matched(3,5) matched(7,6) matched(6,7) matched(1,8) matched(8,1) matched(12,10) matched(9,11) matched(10,12) matched(11,9) matched(16,14) matched(17,15) matched(14,16) matched(15,17) matched(19,18) matched(18,19) matched(13,20) matched(20,13) matched(24,22) matched(25,23) matched(22,24) matched(23,25) matched(27,26) matched(26,27) matched(21,28) matched(28,21) matched(31,30) matched(30,31) matched(29,32) matched(32,29) matched(35,34) matched(34,35) matched(33,36) matched(40,37) matched(39,38) matched(38,39) matched(37,40) matched(36,33) matched(43,42) matched(42,43) matched(45,44) matched(44,45) matched(47,46) matched(46,47) matched(41,48) matched(48,41) matched(51,50) matched(50,51) matched(49,52) matched(52,49) matched(58,54) matched(59,55) matched(57,56) matched(56,57) matched(54,58) matched(55,59) matched(53,60) matched(60,53)
Optimization: 497
Answer: 10
matched(3,2) matched(2,3) matched(6,4) matched(8,5) matched(4,6) matched(1,7) matched(5,8) matched(7,1) matched(12,10) matched(9,11) matched(10,12) matched(11,9) matched(16,14) matched(17,15) matched(14,16) matched(15,17) matched(19,18) matched(18,19) matched(13,20) matched(20,13) matched(24,22) matched(25,23) matched(22,24) matched(23,25) matched(27,26) matched(26,27) matched(21,28) matched(28,21) matched(32,30) matched(29,31) matched(30,32) matched(31,29) matched(36,34) matched(37,35) matched(34,36) matched(35,37) matched(39,38) matched(38,39) matched(33,40) matched(40,33) matched(43,42) matched(42,43) matched(41,44) matched(48,45) matched(47,46) matched(46,47) matched(45,48) matched(44,41) matched(51,50) matched(50,51) matched(49,52) matched(52,49) matched(55,54) matched(54,55) matched(57,56) matched(56,57) matched(59,58) matched(58,59) matched(53,60) matched(60,53)
Optimization: 495
Answer: 11
matched(3,2) matched(2,3) matched(6,4) matched(8,5) matched(4,6) matched(1,7) matched(5,8) matched(7,1) matched(12,10) matched(9,11) matched(10,12) matched(11,9) matched(16,14) matched(17,15) matched(14,16) matched(15,17) matched(19,18) matched(18,19) matched(13,20) matched(20,13) matched(24,22) matched(25,23) matched(22,24) matched(23,25) matched(27,26) matched(26,27) matched(21,28) matched(28,21) matched(31,30) matched(30,31) matched(29,32) matched(32,29) matched(35,34) matched(34,35) matched(33,36) matched(40,37) matched(39,38) matched(38,39) matched(37,40) matched(36,33) matched(43,42) matched(42,43) matched(45,44) matched(44,45) matched(47,46) matched(46,47) matched(41,48) matched(48,41) matched(51,50) matched(50,51) matched(49,52) matched(52,49) matched(55,54) matched(54,55) matched(57,56) matched(56,57) matched(59,58) matched(58,59) matched(53,60) matched(60,53)
Optimization: 494
Answer: 12
matched(4,2) matched(5,3) matched(2,4) matched(3,5) matched(7,6) matched(6,7) matched(1,8) matched(8,1) matched(12,10) matched(9,11) matched(10,12) matched(11,9) matched(16,14) matched(17,15) matched(14,16) matched(15,17) matched(19,18) matched(18,19) matched(13,20) matched(20,13) matched(24,22) matched(25,23) matched(22,24) matched(23,25) matched(27,26) matched(26,27) matched(21,28) matched(28,21) matched(31,30) matched(30,31) matched(29,32) matched(32,29) matched(36,34) matched(37,35) matched(34,36) matched(35,37) matched(39,38) matched(38,39) matched(33,40) matched(40,33) matched(43,42) matched(42,43) matched(41,44) matched(48,45) matched(47,46) matched(46,47) matched(45,48) matched(44,41) matched(51,50) matched(50,51) matched(49,52) matched(52,49) matched(56,54) matched(57,55) matched(54,56) matched(55,57) matched(59,58) matched(58,59) matched(53,60) matched(60,53)
Optimization: 493
Answer: 13
matched(4,2) matched(5,3) matched(2,4) matched(3,5) matched(7,6) matched(6,7) matched(1,8) matched(8,1) matched(12,10) matched(9,11) matched(10,12) matched(11,9) matched(16,14) matched(17,15) matched(14,16) matched(15,17) matched(19,18) matched(18,19) matched(13,20) matched(20,13) matched(24,22) matched(25,23) matched(22,24) matched(23,25) matched(27,26) matched(26,27) matched(21,28) matched(28,21) matched(31,30) matched(30,31) matched(29,32) matched(32,29) matched(35,34) matched(34,35) matched(37,36) matched(36,37) matched(39,38) matched(38,39) matched(33,40) matched(40,33) matched(43,42) matched(42,43) matched(41,44) matched(48,45) matched(47,46) matched(46,47) matched(45,48) matched(44,41) matched(51,50) matched(50,51) matched(49,52) matched(52,49) matched(56,54) matched(57,55) matched(54,56) matched(55,57) matched(59,58) matched(58,59) matched(53,60) matched(60,53)
Optimization: 490
Answer: 14
matched(4,2) matched(5,3) matched(2,4) matched(3,5) matched(7,6) matched(6,7) matched(1,8) matched(8,1) matched(12,10) matched(9,11) matched(10,12) matched(11,9) matched(16,14) matched(17,15) matched(14,16) matched(15,17) matched(19,18) matched(18,19) matched(13,20) matched(20,13) matched(24,22) matched(25,23) matched(22,24) matched(23,25) matched(27,26) matched(26,27) matched(21,28) matched(28,21) matched(31,30) matched(30,31) matched(29,32) matched(32,29) matched(35,34) matched(34,35) matched(37,36) matched(36,37) matched(39,38) matched(38,39) matched(33,40) matched(40,33) matched(43,42) matched(42,43) matched(41,44) matched(48,45) matched(47,46) matched(46,47) matched(45,48) matched(44,41) matched(51,50) matched(50,51) matched(49,52) matched(52,49) matched(55,54) matched(54,55) matched(57,56) matched(56,57) matched(59,58) matched(58,59) matched(53,60) matched(60,53)
Optimization: 487
Answer: 15
matched(4,2) matched(5,3) matched(2,4) matched(3,5) matched(7,6) matched(6,7) matched(1,8) matched(8,1) matched(12,10) matched(9,11) matched(10,12) matched(11,9) matched(16,14) matched(17,15) matched(14,16) matched(15,17) matched(19,18) matched(18,19) matched(13,20) matched(20,13) matched(24,22) matched(25,23) matched(22,24) matched(23,25) matched(27,26) matched(26,27) matched(21,28) matched(28,21) matched(31,30) matched(30,31) matched(29,32) matched(32,29) matched(35,34) matched(34,35) matched(33,36) matched(40,37) matched(39,38) matched(38,39) matched(37,40) matched(36,33) matched(43,42) matched(42,43) matched(41,44) matched(48,45) matched(47,46) matched(46,47) matched(45,48) matched(44,41) matched(51,50) matched(50,51) matched(49,52) matched(52,49) matched(55,54) matched(54,55) matched(57,56) matched(56,57) matched(59,58) matched(58,59) matched(53,60) matched(60,53)
Optimization: 486
OPTIMUM FOUND

Models       : 15
  Optimum    : yes
Optimization : 486
Calls        : 1
Time         : 7.831s (Solving: 7.76s 1st Model: 0.00s Unsat: 5.44s)
CPU Time     : 7.680s
